% Auto-generated by scripts/generate_dzn.py
% problem_type   = regex
% instance       = regex_3
% source_json    = instances_json/2_high_blowup/regex_3.json
% blowup         = 62.76923076923077
% representation = DFA

mode = 0;

var_count = 26;
Q = 816;
S = 2;
q0 = 1;
F = {466, 467, 468, 469, 470, 471, 472, 473, 474, 475, 476, 477, 478, 479, 480, 481, 482, 483, 484, 485, 486, 487, 488, 489, 490, 491, 492, 493, 494, 495, 496, 497, 498, 499, 500, 501, 502, 503, 504, 505, 506, 507, 508, 509, 510, 511, 512, 513, 514, 515, 516, 517, 518, 519, 520, 521, 522, 523, 524, 525, 526, 527, 528, 529, 530, 531, 532, 533, 534, 535, 536, 537, 538, 539, 540, 541, 542, 543, 544, 545, 546, 547, 548, 549, 550, 551, 552, 553, 554, 555, 556, 557, 558, 559, 560, 561, 562, 563, 564, 565, 566, 567, 568, 569, 570, 571, 572, 573, 574, 575, 576, 577, 578, 579, 580, 581, 582, 583, 584, 585, 586, 587, 588, 589, 590, 591, 592, 593, 594, 595, 596, 597, 598, 599, 600, 601, 602, 603, 604, 605, 606, 607, 608, 609, 610, 611, 612, 613, 614, 615, 616, 617, 618, 619, 620, 621, 622, 623, 624, 625, 626, 627, 628, 629, 630, 631, 632, 633, 634, 635, 636, 637, 638, 639, 640, 641, 642, 643, 644, 645, 646, 647, 648, 649, 650, 651, 652, 653, 654, 655, 656, 657, 658, 659, 660, 661, 662, 663, 664, 665, 666, 667, 668, 669, 670, 671, 672, 673, 674, 675, 676, 677, 678, 679, 680, 681, 682, 683, 684, 685, 686, 687, 688, 689, 690, 691, 692, 693, 694, 695, 696, 697, 698, 699, 700, 701, 702, 703, 704, 705, 706, 707, 708, 709, 710, 711, 712, 713, 714, 715, 716, 717, 718, 719, 720, 721, 722, 723, 724, 725, 726, 727, 728, 729, 730, 731, 732, 733, 734, 735, 736, 737, 738, 739, 740, 741, 742, 743, 744, 745, 746, 747, 748, 749, 750, 751, 752, 753, 754, 755, 756, 757, 758, 759, 760, 761, 762, 763, 764, 765, 766, 767, 768, 769, 770, 771, 772, 773, 774, 775, 776, 777, 778, 779, 780, 781, 782, 783, 784, 785, 786, 787, 788, 789, 790, 791, 792, 793, 794, 795, 796, 797, 798, 799, 800, 801, 802, 803, 804, 805, 806, 807, 808, 809, 810, 811, 812, 813, 814, 815, 816};
d_dfa = array2d(1..816, 1..2, [
  1, 2,
  1, 3,
  5, 4,
  7, 6,
  9, 8,
  11, 10,
  13, 12,
  15, 14,
  15, 16,
  18, 17,
  20, 19,
  22, 21,
  22, 23,
  25, 24,
  27, 26,
  27, 28,
  30, 29,
  32, 31,
  34, 33,
  34, 35,
  37, 36,
  39, 38,
  39, 40,
  42, 41,
  44, 43,
  46, 45,
  46, 47,
  49, 48,
  51, 50,
  53, 52,
  55, 54,
  55, 56,
  58, 57,
  60, 59,
  60, 61,
  63, 62,
  65, 64,
  67, 66,
  67, 68,
  70, 69,
  72, 71,
  74, 73,
  76, 75,
  76, 77,
  79, 78,
  81, 80,
  81, 82,
  84, 83,
  86, 85,
  88, 87,
  90, 89,
  92, 91,
  92, 93,
  95, 94,
  97, 96,
  97, 98,
  100, 99,
  102, 101,
  104, 103,
  104, 105,
  107, 106,
  109, 108,
  111, 110,
  113, 112,
  113, 114,
  116, 115,
  118, 117,
  118, 119,
  121, 120,
  123, 122,
  125, 124,
  127, 126,
  129, 128,
  129, 130,
  132, 131,
  134, 133,
  134, 135,
  137, 136,
  139, 138,
  141, 140,
  141, 142,
  144, 143,
  146, 145,
  148, 147,
  150, 149,
  150, 151,
  153, 152,
  155, 154,
  157, 156,
  157, 158,
  160, 159,
  162, 161,
  162, 163,
  165, 164,
  167, 166,
  169, 168,
  169, 170,
  172, 171,
  174, 173,
  176, 175,
  178, 177,
  178, 179,
  181, 180,
  183, 182,
  183, 184,
  186, 185,
  188, 187,
  190, 189,
  192, 191,
  194, 193,
  194, 195,
  197, 196,
  199, 198,
  199, 200,
  202, 201,
  204, 203,
  206, 205,
  206, 207,
  209, 208,
  211, 210,
  213, 212,
  215, 214,
  215, 216,
  218, 217,
  220, 219,
  222, 221,
  222, 223,
  225, 224,
  227, 226,
  227, 228,
  230, 229,
  232, 231,
  234, 233,
  234, 235,
  237, 236,
  239, 238,
  241, 240,
  243, 242,
  243, 244,
  246, 245,
  248, 247,
  248, 249,
  251, 250,
  253, 252,
  255, 254,
  257, 256,
  259, 258,
  259, 260,
  262, 261,
  264, 263,
  264, 265,
  267, 266,
  269, 268,
  271, 270,
  271, 272,
  274, 273,
  276, 275,
  276, 277,
  279, 278,
  281, 280,
  283, 282,
  283, 284,
  286, 285,
  288, 287,
  290, 289,
  292, 291,
  292, 293,
  295, 294,
  297, 296,
  297, 298,
  300, 299,
  302, 301,
  304, 303,
  306, 305,
  308, 307,
  308, 309,
  311, 310,
  313, 312,
  313, 314,
  316, 315,
  318, 317,
  320, 319,
  320, 321,
  323, 322,
  325, 324,
  327, 326,
  329, 328,
  329, 330,
  332, 331,
  334, 333,
  336, 335,
  336, 337,
  339, 338,
  341, 340,
  341, 342,
  344, 343,
  346, 345,
  348, 347,
  348, 349,
  351, 350,
  353, 352,
  355, 354,
  357, 356,
  357, 358,
  360, 359,
  362, 361,
  362, 363,
  365, 364,
  367, 366,
  369, 368,
  371, 370,
  373, 372,
  373, 374,
  376, 375,
  378, 377,
  378, 379,
  381, 380,
  383, 382,
  385, 384,
  385, 386,
  388, 387,
  390, 389,
  390, 391,
  393, 392,
  395, 394,
  397, 396,
  397, 398,
  400, 399,
  402, 401,
  404, 403,
  406, 405,
  406, 407,
  409, 408,
  411, 410,
  411, 412,
  414, 413,
  416, 415,
  418, 417,
  420, 419,
  422, 421,
  422, 423,
  425, 424,
  427, 426,
  427, 428,
  430, 429,
  432, 431,
  434, 433,
  434, 435,
  437, 436,
  439, 438,
  441, 440,
  443, 442,
  443, 444,
  446, 445,
  448, 447,
  450, 449,
  450, 451,
  453, 452,
  455, 454,
  455, 456,
  458, 457,
  460, 459,
  462, 461,
  462, 463,
  465, 464,
  467, 466,
  469, 468,
  471, 470,
  471, 472,
  474, 473,
  476, 475,
  476, 477,
  479, 478,
  481, 480,
  483, 482,
  483, 484,
  486, 485,
  488, 487,
  490, 489,
  492, 491,
  492, 493,
  495, 494,
  497, 496,
  497, 498,
  500, 499,
  502, 501,
  504, 503,
  506, 505,
  508, 507,
  508, 509,
  511, 510,
  513, 512,
  513, 514,
  516, 515,
  518, 517,
  520, 519,
  520, 521,
  523, 522,
  525, 524,
  527, 526,
  529, 528,
  529, 530,
  532, 531,
  534, 533,
  536, 535,
  536, 537,
  539, 538,
  541, 540,
  541, 542,
  544, 543,
  546, 545,
  548, 547,
  548, 549,
  551, 550,
  553, 552,
  555, 554,
  557, 556,
  557, 558,
  560, 559,
  562, 561,
  562, 563,
  565, 564,
  567, 566,
  569, 568,
  571, 570,
  573, 572,
  573, 574,
  576, 575,
  578, 577,
  578, 579,
  581, 580,
  583, 582,
  585, 584,
  585, 586,
  588, 587,
  590, 589,
  590, 591,
  593, 592,
  595, 594,
  597, 596,
  597, 598,
  600, 599,
  602, 601,
  604, 603,
  606, 605,
  606, 607,
  609, 608,
  611, 610,
  611, 612,
  614, 613,
  616, 615,
  618, 617,
  620, 619,
  622, 621,
  622, 623,
  625, 624,
  627, 626,
  627, 628,
  630, 629,
  632, 631,
  634, 633,
  634, 635,
  637, 636,
  639, 638,
  641, 640,
  643, 642,
  643, 644,
  646, 645,
  648, 647,
  650, 649,
  650, 651,
  653, 652,
  655, 654,
  655, 656,
  658, 657,
  660, 659,
  662, 661,
  662, 663,
  665, 664,
  667, 666,
  669, 668,
  671, 670,
  671, 672,
  674, 673,
  676, 675,
  676, 677,
  679, 678,
  681, 680,
  683, 682,
  683, 684,
  686, 685,
  688, 687,
  690, 689,
  692, 691,
  692, 693,
  695, 694,
  697, 696,
  697, 698,
  700, 699,
  702, 701,
  704, 703,
  706, 705,
  708, 707,
  708, 709,
  711, 710,
  713, 712,
  713, 714,
  716, 715,
  718, 717,
  720, 719,
  720, 721,
  723, 722,
  725, 724,
  727, 726,
  729, 728,
  729, 730,
  732, 731,
  734, 733,
  736, 735,
  736, 737,
  739, 738,
  741, 740,
  741, 742,
  744, 743,
  746, 745,
  748, 747,
  748, 749,
  751, 750,
  753, 752,
  755, 754,
  757, 756,
  757, 758,
  760, 759,
  762, 761,
  762, 763,
  765, 764,
  767, 766,
  769, 768,
  771, 770,
  773, 772,
  773, 774,
  776, 775,
  778, 777,
  778, 779,
  781, 780,
  783, 782,
  785, 784,
  785, 786,
  788, 787,
  790, 789,
  790, 791,
  793, 792,
  795, 794,
  797, 796,
  797, 798,
  800, 799,
  802, 801,
  804, 803,
  806, 805,
  806, 807,
  809, 808,
  811, 810,
  811, 812,
  814, 813,
  816, 815,
  467, 466,
  469, 468,
  471, 470,
  471, 472,
  474, 473,
  476, 475,
  476, 477,
  479, 478,
  481, 480,
  483, 482,
  483, 484,
  486, 485,
  488, 487,
  490, 489,
  492, 491,
  492, 493,
  495, 494,
  497, 496,
  497, 498,
  500, 499,
  502, 501,
  504, 503,
  506, 505,
  508, 507,
  508, 509,
  511, 510,
  513, 512,
  513, 514,
  516, 515,
  518, 517,
  520, 519,
  520, 521,
  523, 522,
  525, 524,
  527, 526,
  529, 528,
  529, 530,
  532, 531,
  534, 533,
  536, 535,
  536, 537,
  539, 538,
  541, 540,
  541, 542,
  544, 543,
  546, 545,
  548, 547,
  548, 549,
  551, 550,
  553, 552,
  555, 554,
  557, 556,
  557, 558,
  560, 559,
  562, 561,
  562, 563,
  565, 564,
  567, 566,
  569, 568,
  571, 570,
  573, 572,
  573, 574,
  576, 575,
  578, 577,
  578, 579,
  581, 580,
  583, 582,
  585, 584,
  585, 586,
  588, 587,
  590, 589,
  590, 591,
  593, 592,
  595, 594,
  597, 596,
  597, 598,
  600, 599,
  602, 601,
  604, 603,
  606, 605,
  606, 607,
  609, 608,
  611, 610,
  611, 612,
  614, 613,
  616, 615,
  618, 617,
  620, 619,
  622, 621,
  622, 623,
  625, 624,
  627, 626,
  627, 628,
  630, 629,
  632, 631,
  634, 633,
  634, 635,
  637, 636,
  639, 638,
  641, 640,
  643, 642,
  643, 644,
  646, 645,
  648, 647,
  650, 649,
  650, 651,
  653, 652,
  655, 654,
  655, 656,
  658, 657,
  660, 659,
  662, 661,
  662, 663,
  665, 664,
  667, 666,
  669, 668,
  671, 670,
  671, 672,
  674, 673,
  676, 675,
  676, 677,
  679, 678,
  681, 680,
  683, 682,
  683, 684,
  686, 685,
  688, 687,
  690, 689,
  692, 691,
  692, 693,
  695, 694,
  697, 696,
  697, 698,
  700, 699,
  702, 701,
  704, 703,
  706, 705,
  708, 707,
  708, 709,
  711, 710,
  713, 712,
  713, 714,
  716, 715,
  718, 717,
  720, 719,
  720, 721,
  723, 722,
  725, 724,
  727, 726,
  729, 728,
  729, 730,
  732, 731,
  734, 733,
  736, 735,
  736, 737,
  739, 738,
  741, 740,
  741, 742,
  744, 743,
  746, 745,
  748, 747,
  748, 749,
  751, 750,
  753, 752,
  755, 754,
  757, 756,
  757, 758,
  760, 759,
  762, 761,
  762, 763,
  765, 764,
  767, 766,
  769, 768,
  771, 770,
  773, 772,
  773, 774,
  776, 775,
  778, 777,
  778, 779,
  781, 780,
  783, 782,
  785, 784,
  785, 786,
  788, 787,
  790, 789,
  790, 791,
  793, 792,
  795, 794,
  797, 796,
  797, 798,
  800, 799,
  802, 801,
  804, 803,
  806, 805,
  806, 807,
  809, 808,
  811, 810,
  811, 812,
  814, 813,
  816, 815,
  153, 152,
  155, 154,
  157, 156,
  157, 158,
  160, 159,
  162, 161,
  162, 163,
  165, 164,
  167, 166,
  169, 168,
  169, 170,
  172, 171,
  174, 173,
  176, 175,
  178, 177,
  178, 179,
  181, 180,
  183, 182,
  183, 184,
  186, 185,
  188, 187,
  190, 189,
  192, 191,
  194, 193,
  194, 195,
  197, 196,
  199, 198,
  199, 200,
  202, 201,
  204, 203,
  206, 205,
  206, 207,
  209, 208,
  211, 210,
  213, 212,
  215, 214,
  215, 216,
  218, 217,
  220, 219,
  222, 221,
  222, 223,
  225, 224,
  227, 226,
  227, 228,
  230, 229,
  232, 231,
  234, 233,
  234, 235,
  237, 236,
  239, 238,
  241, 240,
  243, 242,
  243, 244,
  246, 245,
  248, 247,
  248, 249,
  251, 250,
  253, 252,
  255, 254,
  257, 256,
  259, 258,
  259, 260,
  262, 261,
  264, 263,
  264, 265,
  51, 50,
  53, 52,
  55, 54,
  55, 56,
  58, 57,
  60, 59,
  60, 61,
  63, 62,
  65, 64,
  67, 66,
  67, 68,
  70, 69,
  72, 71,
  74, 73,
  76, 75,
  76, 77,
  79, 78,
  81, 80,
  81, 82,
  84, 83,
  86, 85,
  18, 17,
  20, 19,
  22, 21,
  22, 23,
  25, 24,
  27, 26,
  27, 28,
  7, 6,
  9, 8,
  1, 3,
  1, 2,
  5, 4,
  11, 10,
  13, 12,
  15, 14,
  15, 16,
  30, 29,
  32, 31,
  34, 33,
  34, 35,
  37, 36,
  39, 38,
  39, 40,
  42, 41,
  44, 43,
  46, 45,
  46, 47,
  49, 48,
  88, 87,
  90, 89,
  92, 91,
  92, 93,
  95, 94,
  97, 96,
  97, 98,
  100, 99,
  102, 101,
  104, 103,
  104, 105,
  107, 106,
  109, 108,
  111, 110,
  113, 112,
  113, 114,
  116, 115,
  118, 117,
  118, 119,
  121, 120,
  123, 122,
  125, 124,
  127, 126,
  129, 128,
  129, 130,
  132, 131,
  134, 133,
  134, 135,
  137, 136,
  139, 138,
  141, 140,
  141, 142,
  144, 143,
  146, 145,
  148, 147,
  150, 149,
  150, 151
]);
d_nfa = array2d(1..816, 1..2, [
  {}, {},
  {}, {},
  {}, {},
  {}, {},
  {}, {},
  {}, {},
  {}, {},
  {}, {},
  {}, {},
  {}, {},
  {}, {},
  {}, {},
  {}, {},
  {}, {},
  {}, {},
  {}, {},
  {}, {},
  {}, {},
  {}, {},
  {}, {},
  {}, {},
  {}, {},
  {}, {},
  {}, {},
  {}, {},
  {}, {},
  {}, {},
  {}, {},
  {}, {},
  {}, {},
  {}, {},
  {}, {},
  {}, {},
  {}, {},
  {}, {},
  {}, {},
  {}, {},
  {}, {},
  {}, {},
  {}, {},
  {}, {},
  {}, {},
  {}, {},
  {}, {},
  {}, {},
  {}, {},
  {}, {},
  {}, {},
  {}, {},
  {}, {},
  {}, {},
  {}, {},
  {}, {},
  {}, {},
  {}, {},
  {}, {},
  {}, {},
  {}, {},
  {}, {},
  {}, {},
  {}, {},
  {}, {},
  {}, {},
  {}, {},
  {}, {},
  {}, {},
  {}, {},
  {}, {},
  {}, {},
  {}, {},
  {}, {},
  {}, {},
  {}, {},
  {}, {},
  {}, {},
  {}, {},
  {}, {},
  {}, {},
  {}, {},
  {}, {},
  {}, {},
  {}, {},
  {}, {},
  {}, {},
  {}, {},
  {}, {},
  {}, {},
  {}, {},
  {}, {},
  {}, {},
  {}, {},
  {}, {},
  {}, {},
  {}, {},
  {}, {},
  {}, {},
  {}, {},
  {}, {},
  {}, {},
  {}, {},
  {}, {},
  {}, {},
  {}, {},
  {}, {},
  {}, {},
  {}, {},
  {}, {},
  {}, {},
  {}, {},
  {}, {},
  {}, {},
  {}, {},
  {}, {},
  {}, {},
  {}, {},
  {}, {},
  {}, {},
  {}, {},
  {}, {},
  {}, {},
  {}, {},
  {}, {},
  {}, {},
  {}, {},
  {}, {},
  {}, {},
  {}, {},
  {}, {},
  {}, {},
  {}, {},
  {}, {},
  {}, {},
  {}, {},
  {}, {},
  {}, {},
  {}, {},
  {}, {},
  {}, {},
  {}, {},
  {}, {},
  {}, {},
  {}, {},
  {}, {},
  {}, {},
  {}, {},
  {}, {},
  {}, {},
  {}, {},
  {}, {},
  {}, {},
  {}, {},
  {}, {},
  {}, {},
  {}, {},
  {}, {},
  {}, {},
  {}, {},
  {}, {},
  {}, {},
  {}, {},
  {}, {},
  {}, {},
  {}, {},
  {}, {},
  {}, {},
  {}, {},
  {}, {},
  {}, {},
  {}, {},
  {}, {},
  {}, {},
  {}, {},
  {}, {},
  {}, {},
  {}, {},
  {}, {},
  {}, {},
  {}, {},
  {}, {},
  {}, {},
  {}, {},
  {}, {},
  {}, {},
  {}, {},
  {}, {},
  {}, {},
  {}, {},
  {}, {},
  {}, {},
  {}, {},
  {}, {},
  {}, {},
  {}, {},
  {}, {},
  {}, {},
  {}, {},
  {}, {},
  {}, {},
  {}, {},
  {}, {},
  {}, {},
  {}, {},
  {}, {},
  {}, {},
  {}, {},
  {}, {},
  {}, {},
  {}, {},
  {}, {},
  {}, {},
  {}, {},
  {}, {},
  {}, {},
  {}, {},
  {}, {},
  {}, {},
  {}, {},
  {}, {},
  {}, {},
  {}, {},
  {}, {},
  {}, {},
  {}, {},
  {}, {},
  {}, {},
  {}, {},
  {}, {},
  {}, {},
  {}, {},
  {}, {},
  {}, {},
  {}, {},
  {}, {},
  {}, {},
  {}, {},
  {}, {},
  {}, {},
  {}, {},
  {}, {},
  {}, {},
  {}, {},
  {}, {},
  {}, {},
  {}, {},
  {}, {},
  {}, {},
  {}, {},
  {}, {},
  {}, {},
  {}, {},
  {}, {},
  {}, {},
  {}, {},
  {}, {},
  {}, {},
  {}, {},
  {}, {},
  {}, {},
  {}, {},
  {}, {},
  {}, {},
  {}, {},
  {}, {},
  {}, {},
  {}, {},
  {}, {},
  {}, {},
  {}, {},
  {}, {},
  {}, {},
  {}, {},
  {}, {},
  {}, {},
  {}, {},
  {}, {},
  {}, {},
  {}, {},
  {}, {},
  {}, {},
  {}, {},
  {}, {},
  {}, {},
  {}, {},
  {}, {},
  {}, {},
  {}, {},
  {}, {},
  {}, {},
  {}, {},
  {}, {},
  {}, {},
  {}, {},
  {}, {},
  {}, {},
  {}, {},
  {}, {},
  {}, {},
  {}, {},
  {}, {},
  {}, {},
  {}, {},
  {}, {},
  {}, {},
  {}, {},
  {}, {},
  {}, {},
  {}, {},
  {}, {},
  {}, {},
  {}, {},
  {}, {},
  {}, {},
  {}, {},
  {}, {},
  {}, {},
  {}, {},
  {}, {},
  {}, {},
  {}, {},
  {}, {},
  {}, {},
  {}, {},
  {}, {},
  {}, {},
  {}, {},
  {}, {},
  {}, {},
  {}, {},
  {}, {},
  {}, {},
  {}, {},
  {}, {},
  {}, {},
  {}, {},
  {}, {},
  {}, {},
  {}, {},
  {}, {},
  {}, {},
  {}, {},
  {}, {},
  {}, {},
  {}, {},
  {}, {},
  {}, {},
  {}, {},
  {}, {},
  {}, {},
  {}, {},
  {}, {},
  {}, {},
  {}, {},
  {}, {},
  {}, {},
  {}, {},
  {}, {},
  {}, {},
  {}, {},
  {}, {},
  {}, {},
  {}, {},
  {}, {},
  {}, {},
  {}, {},
  {}, {},
  {}, {},
  {}, {},
  {}, {},
  {}, {},
  {}, {},
  {}, {},
  {}, {},
  {}, {},
  {}, {},
  {}, {},
  {}, {},
  {}, {},
  {}, {},
  {}, {},
  {}, {},
  {}, {},
  {}, {},
  {}, {},
  {}, {},
  {}, {},
  {}, {},
  {}, {},
  {}, {},
  {}, {},
  {}, {},
  {}, {},
  {}, {},
  {}, {},
  {}, {},
  {}, {},
  {}, {},
  {}, {},
  {}, {},
  {}, {},
  {}, {},
  {}, {},
  {}, {},
  {}, {},
  {}, {},
  {}, {},
  {}, {},
  {}, {},
  {}, {},
  {}, {},
  {}, {},
  {}, {},
  {}, {},
  {}, {},
  {}, {},
  {}, {},
  {}, {},
  {}, {},
  {}, {},
  {}, {},
  {}, {},
  {}, {},
  {}, {},
  {}, {},
  {}, {},
  {}, {},
  {}, {},
  {}, {},
  {}, {},
  {}, {},
  {}, {},
  {}, {},
  {}, {},
  {}, {},
  {}, {},
  {}, {},
  {}, {},
  {}, {},
  {}, {},
  {}, {},
  {}, {},
  {}, {},
  {}, {},
  {}, {},
  {}, {},
  {}, {},
  {}, {},
  {}, {},
  {}, {},
  {}, {},
  {}, {},
  {}, {},
  {}, {},
  {}, {},
  {}, {},
  {}, {},
  {}, {},
  {}, {},
  {}, {},
  {}, {},
  {}, {},
  {}, {},
  {}, {},
  {}, {},
  {}, {},
  {}, {},
  {}, {},
  {}, {},
  {}, {},
  {}, {},
  {}, {},
  {}, {},
  {}, {},
  {}, {},
  {}, {},
  {}, {},
  {}, {},
  {}, {},
  {}, {},
  {}, {},
  {}, {},
  {}, {},
  {}, {},
  {}, {},
  {}, {},
  {}, {},
  {}, {},
  {}, {},
  {}, {},
  {}, {},
  {}, {},
  {}, {},
  {}, {},
  {}, {},
  {}, {},
  {}, {},
  {}, {},
  {}, {},
  {}, {},
  {}, {},
  {}, {},
  {}, {},
  {}, {},
  {}, {},
  {}, {},
  {}, {},
  {}, {},
  {}, {},
  {}, {},
  {}, {},
  {}, {},
  {}, {},
  {}, {},
  {}, {},
  {}, {},
  {}, {},
  {}, {},
  {}, {},
  {}, {},
  {}, {},
  {}, {},
  {}, {},
  {}, {},
  {}, {},
  {}, {},
  {}, {},
  {}, {},
  {}, {},
  {}, {},
  {}, {},
  {}, {},
  {}, {},
  {}, {},
  {}, {},
  {}, {},
  {}, {},
  {}, {},
  {}, {},
  {}, {},
  {}, {},
  {}, {},
  {}, {},
  {}, {},
  {}, {},
  {}, {},
  {}, {},
  {}, {},
  {}, {},
  {}, {},
  {}, {},
  {}, {},
  {}, {},
  {}, {},
  {}, {},
  {}, {},
  {}, {},
  {}, {},
  {}, {},
  {}, {},
  {}, {},
  {}, {},
  {}, {},
  {}, {},
  {}, {},
  {}, {},
  {}, {},
  {}, {},
  {}, {},
  {}, {},
  {}, {},
  {}, {},
  {}, {},
  {}, {},
  {}, {},
  {}, {},
  {}, {},
  {}, {},
  {}, {},
  {}, {},
  {}, {},
  {}, {},
  {}, {},
  {}, {},
  {}, {},
  {}, {},
  {}, {},
  {}, {},
  {}, {},
  {}, {},
  {}, {},
  {}, {},
  {}, {},
  {}, {},
  {}, {},
  {}, {},
  {}, {},
  {}, {},
  {}, {},
  {}, {},
  {}, {},
  {}, {},
  {}, {},
  {}, {},
  {}, {},
  {}, {},
  {}, {},
  {}, {},
  {}, {},
  {}, {},
  {}, {},
  {}, {},
  {}, {},
  {}, {},
  {}, {},
  {}, {},
  {}, {},
  {}, {},
  {}, {},
  {}, {},
  {}, {},
  {}, {},
  {}, {},
  {}, {},
  {}, {},
  {}, {},
  {}, {},
  {}, {},
  {}, {},
  {}, {},
  {}, {},
  {}, {},
  {}, {},
  {}, {},
  {}, {},
  {}, {},
  {}, {},
  {}, {},
  {}, {},
  {}, {},
  {}, {},
  {}, {},
  {}, {},
  {}, {},
  {}, {},
  {}, {},
  {}, {},
  {}, {},
  {}, {},
  {}, {},
  {}, {},
  {}, {},
  {}, {},
  {}, {},
  {}, {},
  {}, {},
  {}, {},
  {}, {},
  {}, {},
  {}, {},
  {}, {},
  {}, {},
  {}, {},
  {}, {},
  {}, {},
  {}, {},
  {}, {},
  {}, {},
  {}, {},
  {}, {},
  {}, {},
  {}, {},
  {}, {},
  {}, {},
  {}, {},
  {}, {},
  {}, {},
  {}, {},
  {}, {},
  {}, {},
  {}, {},
  {}, {},
  {}, {},
  {}, {},
  {}, {},
  {}, {},
  {}, {},
  {}, {},
  {}, {},
  {}, {},
  {}, {},
  {}, {},
  {}, {},
  {}, {},
  {}, {},
  {}, {},
  {}, {},
  {}, {},
  {}, {},
  {}, {},
  {}, {},
  {}, {},
  {}, {},
  {}, {},
  {}, {},
  {}, {},
  {}, {},
  {}, {},
  {}, {},
  {}, {},
  {}, {},
  {}, {},
  {}, {},
  {}, {},
  {}, {},
  {}, {},
  {}, {},
  {}, {},
  {}, {},
  {}, {},
  {}, {},
  {}, {},
  {}, {},
  {}, {},
  {}, {},
  {}, {},
  {}, {},
  {}, {},
  {}, {},
  {}, {},
  {}, {},
  {}, {},
  {}, {},
  {}, {},
  {}, {},
  {}, {},
  {}, {},
  {}, {},
  {}, {},
  {}, {},
  {}, {},
  {}, {},
  {}, {},
  {}, {},
  {}, {},
  {}, {},
  {}, {},
  {}, {},
  {}, {},
  {}, {},
  {}, {},
  {}, {},
  {}, {},
  {}, {},
  {}, {},
  {}, {},
  {}, {},
  {}, {},
  {}, {},
  {}, {},
  {}, {},
  {}, {},
  {}, {},
  {}, {},
  {}, {},
  {}, {},
  {}, {},
  {}, {},
  {}, {},
  {}, {},
  {}, {},
  {}, {},
  {}, {},
  {}, {},
  {}, {},
  {}, {},
  {}, {},
  {}, {},
  {}, {},
  {}, {},
  {}, {},
  {}, {},
  {}, {},
  {}, {},
  {}, {},
  {}, {},
  {}, {},
  {}, {},
  {}, {},
  {}, {},
  {}, {},
  {}, {},
  {}, {},
  {}, {},
  {}, {},
  {}, {},
  {}, {},
  {}, {},
  {}, {},
  {}, {},
  {}, {},
  {}, {},
  {}, {},
  {}, {},
  {}, {},
  {}, {},
  {}, {},
  {}, {},
  {}, {},
  {}, {},
  {}, {},
  {}, {},
  {}, {},
  {}, {},
  {}, {},
  {}, {},
  {}, {},
  {}, {}
]);
